c NeuroCodeBench 2.0 CNF formula with verdict Unsat
p cnf 62 73
-1 37 12 46 0
1 -20 -7 8 56 0
-1 37 -12 -62 -34 0
-1 37 12 -46 -19 30 -4 -54 3 0
-1 -37 -43 -10 5 4 42 34 -54 0
-1 -37 -43 10 38 0
-1 37 12 -46 19 -4 -21 0
1 -20 7 -56 16 24 61 -36 30 28 0
-1 -37 43 46 -2 7 10 -55 0
1 20 -21 36 -52 -13 16 -12 -25 0
1 -20 -7 8 -56 26 11 -61 -38 51 16 0
1 20 -21 36 -52 13 -12 0
1 -20 -7 8 -56 -26 0
1 20 21 8 32 55 0
1 -20 7 56 2 0
1 -20 7 -56 16 24 61 36 -38 0
-1 37 12 -46 -19 -30 11 -59 0
1 20 21 8 32 -55 0
1 -20 -7 8 -56 26 -11 0
1 -20 7 -56 16 24 61 36 38 0
-1 37 12 -46 19 -4 21 0
1 20 -21 36 -52 -13 -16 0
-1 37 -12 62 49 0
1 20 -21 36 -52 13 12 0
-1 -37 43 46 -2 7 10 55 0
-1 -37 -43 -10 -5 0
-1 37 12 -46 19 4 0
1 20 21 -8 17 0
-1 -37 43 46 -2 -7 -29 0
1 -20 -7 8 -56 26 11 -61 38 0
-1 -37 43 46 -2 -7 29 0
-1 -37 -43 10 -38 -56 -61 0
-1 -37 -43 10 -38 56 -9 0
1 -20 7 -56 16 24 61 -36 30 -28 0
-1 -37 -43 10 -38 -56 61 0
-1 -37 43 46 2 -47 25 0
1 -20 7 -56 16 24 61 -36 -30 0
-1 -37 -43 -10 5 -4 11 0
-1 -37 -43 10 -38 56 9 0
1 -20 -7 8 -56 26 11 61 0
-1 37 -12 62 -49 0
1 20 21 -8 -17 0
-1 -37 43 46 2 47 25 0
-1 37 12 -46 -19 -30 11 59 0
1 -20 7 56 -2 0
1 -20 7 -56 16 24 -61 0
1 20 -21 -36 -35 0
-1 -37 43 -46 0
1 20 -21 -36 35 0
-1 37 12 -46 -19 30 4 0
1 -20 -7 8 -56 26 11 -61 -38 51 -16 0
-1 37 12 -46 -19 30 -4 54 0
-1 -37 -43 -10 5 4 42 -34 0
-1 -37 -43 -10 5 4 42 34 54 0
-1 -37 -43 -10 5 4 -42 52 0
-1 -37 -43 -10 5 -4 -11 0
1 -20 -7 -8 0
-1 37 -12 -62 34 0
-1 -37 43 46 -2 7 -10 0
1 20 -21 36 -52 -13 16 12 0
1 20 21 8 -32 23 0
-1 37 12 -46 -19 -30 -11 0
1 20 -21 36 -52 -13 16 -12 25 0
-1 -37 -43 -10 5 4 -42 -52 0
1 20 21 8 -32 -23 0
-1 -37 43 46 2 -47 -25 0
1 20 -21 36 52 -32 0
1 20 -21 36 52 32 0
1 -20 -7 8 -56 26 11 -61 -38 -51 0
-1 -37 43 46 2 47 -25 0
1 -20 7 -56 16 -24 0
1 -20 7 -56 -16 0
-1 37 12 -46 -19 30 -4 -54 -3 0
